&CONTROL
  calculation='scf',
  prefix='calc',
  pseudo_dir='../../../../../psps/SG15/upf/PBE',
  outdir='.',
  tprnfor=.true.,
  etot_conv_thr=1d0,
  forc_conv_thr=0.0019446903957408628d00,
/
&SYSTEM
  ibrav=0,
  celldm(1)=1.8897261245650618d0,
  nat=1,
  ntyp=1,
  ecutwfc=100.0d00,
  ecutrho=1000.0d00,
  occupations='smearing',
  smearing='gaussian',
  degauss=0.007349864494991328d00,
  nosym=.true.,
  noinv=.false.,
  nosym_evc=.false.,
  no_t_rev=.false.,
/
&ELECTRONS
  diagonalization='david',
  conv_thr=7.349864494991327e-08,
  electron_maxstep=500,
  startingwfc='random',
/
CELL_PARAMETERS alat
    1.957955679086212d0     0.000000000000000d0     0.000000000000000d0
    0.000000000000000d0     1.957955679086212d0     0.000000000000000d0
    0.000000000000000d0     0.000000000000000d0     1.957955679086212d0
ATOMIC_SPECIES
P1 30.973761998d00 P.UPF
ATOMIC_POSITIONS {crystal}
P1       0.000000000000000d0     0.000000000000000d0     0.000000000000000d0
K_POINTS automatic
1 1 1  0 0 0 
