&CONTROL
  calculation='scf',
  prefix='calc',
  pseudo_dir='../../../../../psps/SG15/upf/LDA',
  outdir='.',
  tprnfor=.true.,
  etot_conv_thr=1d0,
  forc_conv_thr=0.0019446903957408628d00,
/
&SYSTEM
  ibrav=0,
  celldm(1)=1.8897261245650618d0,
  nat=1,
  ntyp=1,
  ecutwfc=70.0d00,
  ecutrho=700.0d00,
  occupations='smearing',
  smearing='gaussian',
  degauss=0.007349864494991328d00,
  nosym=.true.,
  noinv=.false.,
  nosym_evc=.false.,
  no_t_rev=.false.,
/
&ELECTRONS
  diagonalization='david',
  conv_thr=7.349864494991327e-08,
  electron_maxstep=500,
  startingwfc='random',
/
CELL_PARAMETERS alat
    2.979267695474426d0     0.000000000000000d0     0.000000000000000d0
    0.000000000000000d0     2.979267695474426d0     0.000000000000000d0
    0.000000000000000d0     0.000000000000000d0     2.979267695474426d0
ATOMIC_SPECIES
Ni1 58.6934d00 Ni.UPF
ATOMIC_POSITIONS {crystal}
Ni1      0.000000000000000d0     0.000000000000000d0     0.000000000000000d0
K_POINTS automatic
1 1 1  0 0 0 
